problem_generation/data/GISP/train/er_n=63_m=1180_p=0.60_SET2_setparam=100.00_alpha=0.50_360.lp
maximize
OBJ:100x0 + 100x1 + 100x2 + 100x3 + 100x4 + 100x5 + 100x6 + 100x7 + 100x8 + 100x9 + 100x10 + 100x11 + 100x12 + 100x13 + 100x14 + 100x15 + 100x16 + 100x17 + 100x18 + 100x19 + 100x20 + 100x21 + 100x22 + 100x23 + 100x24 + 100x25 + 100x26 + 100x27 + 100x28 + 100x29 + 100x30 + 100x31 + 100x32 + 100x33 + 100x34 + 100x35 + 100x36 + 100x37 + 100x38 + 100x39 + 100x40 + 100x41 + 100x42 + 100x43 + 100x44 + 100x45 + 100x46 + 100x47 + 100x48 + 100x49 + 100x50 + 100x51 + 100x52 + 100x53 + 100x54 + 100x55 + 100x56 + 100x57 + 100x58 + 100x59 + 100x60 + 100x61 + 100x62 - y47_53 - y26_30 - y0_5 - y29_41 - y0_14 - y11_23 - y40_59 - y33_47 - y44_47 - y10_54 - y44_56 - y2_50 - y14_15 - y25_52 - y2_59 - y3_24 - y25_61 - y14_33 - y14_42 - y15_25 - y9_49 - y29_36 - y29_54 - y10_22 - y25_38 - y2_45 - y3_10 - y22_23 - y2_54 - y32_55 - y43_55 - y22_32 - y3_28 - y3_37 - y28_39 - y7_16 - y47_52 - y17_48 - y9_44 - y28_57 - y21_27 - y29_49 - y21_45 - y6_56 - y40_58 - y2_13 - y2_31 - y25_33 - y10_44 - y25_42 - y3_14 - y32_50 - y43_50 - y1_53 - y24_55 - y14_32 - y16_51 - y35_55 - y36_38 - y17_34 - y36_47 - y9_30 - y5_41 - y47_56 - y9_48 - y5_59 - y6_24 - y29_35 - y6_42 - y21_49 - y39_48 - y20_53 - y31_53 - y10_30 - y54_55 - y2_26 - y20_62 - y2_35 - y32_36 - y43_45 - y51_58 - y32_54 - y43_54 - y17_20 - y17_29 - y36_42 - y5_36 - y28_38 - y36_51 - y9_34 - y47_51 - y28_47 - y17_56 - y6_19 - y9_52 - y29_30 - y21_26 - y39_43 - y20_39 - y20_48 - y10_25 - y2_30 - y23_62 - y13_27 - y3_4 - y51_53 - y1_34 - y43_49 - y16_32 - y13_45 - y1_52 - y17_24 - y36_37 - y17_42 - y5_58 - y6_32 - y19_60 - y10_11 - y2_7 - y12_39 - y23_39 - y20_52 - y31_52 - y4_53 - y16_18 - y1_29 - y24_31 - y43_44 - y1_38 - y13_40 - y24_40 - y35_40 - y24_49 - y35_49 - y5_17 - y17_19 - y9_15 - y5_44 - y27_41 - y30_46 - y0_60 - y23_25 - y39_42 - y31_38 - y39_51 - y12_34 - y4_30 - y39_60 - y20_56 - y31_56 - y12_52 - y24_26 - y53_62 - y4_57 - y32_39 - y34_58 - y24_35 - y1_42 - y16_40 - y1_51 - y46_50 - y38_46 - y17_23 - y9_19 - y5_30 - y26_62 - y5_39 - y19_32 - y30_41 - y42_43 - y11_37 - y8_50 - y19_50 - y8_59 - y12_20 - y20_33 - y31_33 - y1_10 - y4_43 - y13_21 - y45_53 - y24_30 - y22_60 - y1_37 - y16_35 - y1_46 - y5_7 - y38_41 - y38_50 - y49_59 - y18_53 - y27_31 - y8_36 - y0_32 - y11_32 - y8_45 - y11_41 - y19_54 - y30_54 - y42_56 - y12_15 - y0_59 - y11_59 - y41_60 - y20_37 - y4_29 - y12_42 - y1_5 - y34_39 - y45_48 - y53_61 - y16_21 - y22_55 - y56_57 - y14_60 - y15_34 - y46_49 - y7_39 - y27_35 - y11_18 - y27_44 - y0_27 - y19_40 - y0_45 - y11_45 - y30_58 - y41_46 - y4_6 - y11_54 - y52_55 - y4_15 - y23_28 - y12_37 - y1_9 - y34_43 - y53_56 - y37_39 - y45_52 - y34_61 - y15_29 - y7_25 - y18_25 - y26_47 - y19_26 - y19_35 - y0_31 - y11_31 - y0_40 - y11_40 - y41_50 - y33_46 - y44_46 - y41_59 - y52_59 - y10_53 - y4_28 - y10_62 - y2_58 - y22_45 - y14_41 - y34_56 - y37_52 - y37_61 - y18_29 - y15_42 - y26_42 - y18_38 - y0_8 - y7_56 - y8_21 - y18_56 - y0_26 - y21_58 - y33_41 - y25_37 - y44_50 - y33_59 - y44_59 - y2_53 - y25_55 - y26_28 - y47_60 - y26_37 - y48_52 - y11_12 - y21_44 - y6_55 - y40_57 - y41_49 - y25_32 - y4_9 - y10_43 - y41_58 - y2_39 - y10_52 - y33_54 - y44_54 - y3_22 - y22_35 - y3_31 - y3_49 - y7_10 - y7_19 - y36_55 - y47_55 - y29_34 - y48_56 - y0_16 - y40_52 - y21_48 - y10_29 - y41_44 - y10_38 - y10_47 - y44_49 - y3_8 - y14_26 - y24_58 - y14_35 - y3_44 - y14_44 - y47_50 - y17_46 - y18_23 - y9_42 - y17_55 - y5_62 - y6_27 - y21_25 - y0_2 - y6_36 - y29_38 - y21_43 - y6_54 - y21_52 - y21_61 - y10_24 - y2_20 - y25_31 - y33_44 - y10_51 - y3_21 - y14_21 - y13_53 - y35_53 - y1_60 - y17_32 - y7_9 - y36_45 - y9_37 - y58_60 - y9_55 - y6_31 - y21_29 - y6_40 - y21_38 - y21_47 - y10_28 - y20_60 - y31_60 - y54_62 - y2_33 - y51_56 - y24_39 - y3_25 - y32_61 - y43_61 - y36_40 - y9_23 - y5_34 - y28_36 - y9_32 - y17_45 - y28_45 - y6_17 - y21_24 - y6_44 - y21_42 - y39_50 - y20_46 - y31_46 - y31_55 - y13_25 - y32_38 - y13_34 - y13_43 - y35_43 - y16_48 - y17_31 - y5_38 - y17_49 - y6_12 - y9_45 - y6_21 - y19_58 - y20_59 - y54_61 - y4_51 - y13_29 - y24_29 - y4_60 - y32_42 - y13_38 - y32_51 - y16_34 - y16_52 - y5_15 - y46_53 - y16_61 - y57_62 - y36_39 - y17_35 - y9_31 - y27_57 - y0_49 - y8_62 - y30_62 - y0_58 - y11_58 - y39_40 - y10_13 - y23_32 - y20_54 - y31_54 - y12_50 - y4_55 - y16_20 - y32_37 - y13_33 - y43_46 - y35_42 - y1_49 - y24_51 - y46_57 - y49_62 - y6_11 - y8_39 - y27_52 - y19_48 - y30_48 - y11_44 - y19_57 - y20_22 - y2_4 - y12_36 - y4_32 - y13_19 - y24_28 - y16_24 - y45_60 - y1_35 - y24_37 - y56_60 - y38_39 - y9_12 - y38_48 - y57_61 - y15_55 - y5_32 - y18_51 - y8_25 - y30_34 - y27_47 - y0_30 - y30_43 - y0_39 - y20_26 - y60_62 - y11_57 - y12_22 - y23_40 - y1_3 - y4_36 - y23_49 - y4_45 - y34_46 - y45_46 - y53_59 - y3_58 - y14_58 - y5_9 - y15_50 - y38_52 - y18_46 - y26_59 - y49_61 - y19_29 - y27_42 - y8_38 - y19_38 - y11_34 - y19_47 - y0_52 - y11_52 - y0_61 - y23_26 - y33_58 - y22_48 - y37_55 - y46_51 - y18_50 - y8_15 - y27_28 - y0_11 - y8_24 - y11_20 - y8_33 - y19_42 - y0_38 - y11_38 - y30_51 - y0_47 - y41_48 - y4_8 - y41_57 - y4_17 - y12_30 - y10_60 - y25_58 - y1_11 - y22_43 - y1_20 - y14_39 - y53_58 - y34_54 - y22_61 - y14_57 - y15_22 - y7_27 - y18_27 - y26_40 - y7_36 - y26_49 - y7_45 - y0_6 - y18_54 - y8_19 - y11_24 - y11_42 - y41_43 - y41_52 - y33_48 - y41_61 - y25_44 - y4_21 - y33_57 - y44_57 - y2_60 - y22_38 - y37_45 - y22_56 - y14_61 - y55_62 - y7_22 - y18_31 - y7_40 - y48_50 - y40_46 - y19_23 - y0_19 - y6_62 - y25_30 - y4_7 - y10_41 - y33_43 - y41_56 - y33_52 - y44_52 - y2_46 - y25_48 - y10_59 - y33_61 - y44_61 - y22_33 - y34_35 - y3_47 - y14_56
 Subject to
C1: x0+x2-y0_2 <=1 
C2: x0+x4 <=1 
C3: x0+x5-y0_5 <=1 
C4: x0+x6-y0_6 <=1 
C5: x0+x8-y0_8 <=1 
C6: x0+x10 <=1 
C7: x0+x11-y0_11 <=1 
C8: x0+x13 <=1 
C9: x0+x14-y0_14 <=1 
C10: x0+x16-y0_16 <=1 
C11: x0+x17 <=1 
C12: x0+x19-y0_19 <=1 
C13: x0+x20 <=1 
C14: x0+x21 <=1 
C15: x0+x26-y0_26 <=1 
C16: x0+x27-y0_27 <=1 
C17: x0+x28 <=1 
C18: x0+x30-y0_30 <=1 
C19: x0+x31-y0_31 <=1 
C20: x0+x32-y0_32 <=1 
C21: x0+x33 <=1 
C22: x0+x34 <=1 
C23: x0+x36 <=1 
C24: x0+x37 <=1 
C25: x0+x38-y0_38 <=1 
C26: x0+x39-y0_39 <=1 
C27: x0+x40-y0_40 <=1 
C28: x0+x42 <=1 
C29: x0+x45-y0_45 <=1 
C30: x0+x46 <=1 
C31: x0+x47-y0_47 <=1 
C32: x0+x49-y0_49 <=1 
C33: x0+x52-y0_52 <=1 
C34: x0+x55 <=1 
C35: x0+x58-y0_58 <=1 
C36: x0+x59-y0_59 <=1 
C37: x0+x60-y0_60 <=1 
C38: x0+x61-y0_61 <=1 
C39: x1+x3-y1_3 <=1 
C40: x1+x4 <=1 
C41: x1+x5-y1_5 <=1 
C42: x1+x6 <=1 
C43: x1+x7 <=1 
C44: x1+x9-y1_9 <=1 
C45: x1+x10-y1_10 <=1 
C46: x1+x11-y1_11 <=1 
C47: x1+x12 <=1 
C48: x1+x14 <=1 
C49: x1+x16 <=1 
C50: x1+x18 <=1 
C51: x1+x20-y1_20 <=1 
C52: x1+x23 <=1 
C53: x1+x24 <=1 
C54: x1+x29-y1_29 <=1 
C55: x1+x31 <=1 
C56: x1+x32 <=1 
C57: x1+x34-y1_34 <=1 
C58: x1+x35-y1_35 <=1 
C59: x1+x37-y1_37 <=1 
C60: x1+x38-y1_38 <=1 
C61: x1+x40 <=1 
C62: x1+x41 <=1 
C63: x1+x42-y1_42 <=1 
C64: x1+x43 <=1 
C65: x1+x44 <=1 
C66: x1+x46-y1_46 <=1 
C67: x1+x47 <=1 
C68: x1+x48 <=1 
C69: x1+x49-y1_49 <=1 
C70: x1+x51-y1_51 <=1 
C71: x1+x52-y1_52 <=1 
C72: x1+x53-y1_53 <=1 
C73: x1+x55 <=1 
C74: x1+x57 <=1 
C75: x1+x59 <=1 
C76: x1+x60-y1_60 <=1 
C77: x2+x3 <=1 
C78: x2+x4-y2_4 <=1 
C79: x2+x6 <=1 
C80: x2+x7-y2_7 <=1 
C81: x2+x9 <=1 
C82: x2+x10 <=1 
C83: x2+x11 <=1 
C84: x2+x13-y2_13 <=1 
C85: x2+x15 <=1 
C86: x2+x17 <=1 
C87: x2+x18 <=1 
C88: x2+x19 <=1 
C89: x2+x20-y2_20 <=1 
C90: x2+x24 <=1 
C91: x2+x25 <=1 
C92: x2+x26-y2_26 <=1 
C93: x2+x29 <=1 
C94: x2+x30-y2_30 <=1 
C95: x2+x31-y2_31 <=1 
C96: x2+x32 <=1 
C97: x2+x33-y2_33 <=1 
C98: x2+x35-y2_35 <=1 
C99: x2+x37 <=1 
C100: x2+x39-y2_39 <=1 
C101: x2+x40 <=1 
C102: x2+x41 <=1 
C103: x2+x45-y2_45 <=1 
C104: x2+x46-y2_46 <=1 
C105: x2+x47 <=1 
C106: x2+x48 <=1 
C107: x2+x50-y2_50 <=1 
C108: x2+x53-y2_53 <=1 
C109: x2+x54-y2_54 <=1 
C110: x2+x57 <=1 
C111: x2+x58-y2_58 <=1 
C112: x2+x59-y2_59 <=1 
C113: x2+x60-y2_60 <=1 
C114: x2+x61 <=1 
C115: x3+x4-y3_4 <=1 
C116: x3+x5 <=1 
C117: x3+x8-y3_8 <=1 
C118: x3+x9 <=1 
C119: x3+x10-y3_10 <=1 
C120: x3+x14-y3_14 <=1 
C121: x3+x15 <=1 
C122: x3+x20 <=1 
C123: x3+x21-y3_21 <=1 
C124: x3+x22-y3_22 <=1 
C125: x3+x23 <=1 
C126: x3+x24-y3_24 <=1 
C127: x3+x25-y3_25 <=1 
C128: x3+x26 <=1 
C129: x3+x28-y3_28 <=1 
C130: x3+x31-y3_31 <=1 
C131: x3+x32 <=1 
C132: x3+x36 <=1 
C133: x3+x37-y3_37 <=1 
C134: x3+x38 <=1 
C135: x3+x40 <=1 
C136: x3+x41 <=1 
C137: x3+x43 <=1 
C138: x3+x44-y3_44 <=1 
C139: x3+x47-y3_47 <=1 
C140: x3+x49-y3_49 <=1 
C141: x3+x51 <=1 
C142: x3+x53 <=1 
C143: x3+x55 <=1 
C144: x3+x57 <=1 
C145: x3+x58-y3_58 <=1 
C146: x3+x59 <=1 
C147: x3+x60 <=1 
C148: x3+x62 <=1 
C149: x4+x5 <=1 
C150: x4+x6-y4_6 <=1 
C151: x4+x7-y4_7 <=1 
C152: x4+x8-y4_8 <=1 
C153: x4+x9-y4_9 <=1 
C154: x4+x10 <=1 
C155: x4+x15-y4_15 <=1 
C156: x4+x16 <=1 
C157: x4+x17-y4_17 <=1 
C158: x4+x18 <=1 
C159: x4+x19 <=1 
C160: x4+x20 <=1 
C161: x4+x21-y4_21 <=1 
C162: x4+x23 <=1 
C163: x4+x25 <=1 
C164: x4+x27 <=1 
C165: x4+x28-y4_28 <=1 
C166: x4+x29-y4_29 <=1 
C167: x4+x30-y4_30 <=1 
C168: x4+x32-y4_32 <=1 
C169: x4+x35 <=1 
C170: x4+x36-y4_36 <=1 
C171: x4+x39 <=1 
C172: x4+x41 <=1 
C173: x4+x43-y4_43 <=1 
C174: x4+x45-y4_45 <=1 
C175: x4+x47 <=1 
C176: x4+x49 <=1 
C177: x4+x51-y4_51 <=1 
C178: x4+x53-y4_53 <=1 
C179: x4+x54 <=1 
C180: x4+x55-y4_55 <=1 
C181: x4+x57-y4_57 <=1 
C182: x4+x58 <=1 
C183: x4+x59 <=1 
C184: x4+x60-y4_60 <=1 
C185: x4+x62 <=1 
C186: x5+x6 <=1 
C187: x5+x7-y5_7 <=1 
C188: x5+x9-y5_9 <=1 
C189: x5+x10 <=1 
C190: x5+x11 <=1 
C191: x5+x12 <=1 
C192: x5+x14 <=1 
C193: x5+x15-y5_15 <=1 
C194: x5+x17-y5_17 <=1 
C195: x5+x18 <=1 
C196: x5+x20 <=1 
C197: x5+x22 <=1 
C198: x5+x25 <=1 
C199: x5+x30-y5_30 <=1 
C200: x5+x31 <=1 
C201: x5+x32-y5_32 <=1 
C202: x5+x34-y5_34 <=1 
C203: x5+x36-y5_36 <=1 
C204: x5+x38-y5_38 <=1 
C205: x5+x39-y5_39 <=1 
C206: x5+x40 <=1 
C207: x5+x41-y5_41 <=1 
C208: x5+x42 <=1 
C209: x5+x43 <=1 
C210: x5+x44-y5_44 <=1 
C211: x5+x47 <=1 
C212: x5+x48 <=1 
C213: x5+x51 <=1 
C214: x5+x53 <=1 
C215: x5+x55 <=1 
C216: x5+x58-y5_58 <=1 
C217: x5+x59-y5_59 <=1 
C218: x5+x60 <=1 
C219: x5+x62-y5_62 <=1 
C220: x6+x7 <=1 
C221: x6+x8 <=1 
C222: x6+x11-y6_11 <=1 
C223: x6+x12-y6_12 <=1 
C224: x6+x14 <=1 
C225: x6+x15 <=1 
C226: x6+x17-y6_17 <=1 
C227: x6+x18 <=1 
C228: x6+x19-y6_19 <=1 
C229: x6+x20 <=1 
C230: x6+x21-y6_21 <=1 
C231: x6+x23 <=1 
C232: x6+x24-y6_24 <=1 
C233: x6+x26 <=1 
C234: x6+x27-y6_27 <=1 
C235: x6+x30 <=1 
C236: x6+x31-y6_31 <=1 
C237: x6+x32-y6_32 <=1 
C238: x6+x33 <=1 
C239: x6+x36-y6_36 <=1 
C240: x6+x37 <=1 
C241: x6+x38 <=1 
C242: x6+x39 <=1 
C243: x6+x40-y6_40 <=1 
C244: x6+x42-y6_42 <=1 
C245: x6+x43 <=1 
C246: x6+x44-y6_44 <=1 
C247: x6+x46 <=1 
C248: x6+x47 <=1 
C249: x6+x48 <=1 
C250: x6+x50 <=1 
C251: x6+x52 <=1 
C252: x6+x54-y6_54 <=1 
C253: x6+x55-y6_55 <=1 
C254: x6+x56-y6_56 <=1 
C255: x6+x60 <=1 
C256: x6+x62-y6_62 <=1 
C257: x7+x9-y7_9 <=1 
C258: x7+x10-y7_10 <=1 
C259: x7+x14 <=1 
C260: x7+x16-y7_16 <=1 
C261: x7+x18 <=1 
C262: x7+x19-y7_19 <=1 
C263: x7+x20 <=1 
C264: x7+x22-y7_22 <=1 
C265: x7+x25-y7_25 <=1 
C266: x7+x27-y7_27 <=1 
C267: x7+x29 <=1 
C268: x7+x34 <=1 
C269: x7+x36-y7_36 <=1 
C270: x7+x37 <=1 
C271: x7+x38 <=1 
C272: x7+x39-y7_39 <=1 
C273: x7+x40-y7_40 <=1 
C274: x7+x42 <=1 
C275: x7+x43 <=1 
C276: x7+x45-y7_45 <=1 
C277: x7+x46 <=1 
C278: x7+x47 <=1 
C279: x7+x49 <=1 
C280: x7+x56-y7_56 <=1 
C281: x7+x62 <=1 
C282: x8+x9 <=1 
C283: x8+x12 <=1 
C284: x8+x15-y8_15 <=1 
C285: x8+x17 <=1 
C286: x8+x19-y8_19 <=1 
C287: x8+x20 <=1 
C288: x8+x21-y8_21 <=1 
C289: x8+x23 <=1 
C290: x8+x24-y8_24 <=1 
C291: x8+x25-y8_25 <=1 
C292: x8+x26 <=1 
C293: x8+x32 <=1 
C294: x8+x33-y8_33 <=1 
C295: x8+x34 <=1 
C296: x8+x35 <=1 
C297: x8+x36-y8_36 <=1 
C298: x8+x37 <=1 
C299: x8+x38-y8_38 <=1 
C300: x8+x39-y8_39 <=1 
C301: x8+x40 <=1 
C302: x8+x41 <=1 
C303: x8+x43 <=1 
C304: x8+x45-y8_45 <=1 
C305: x8+x47 <=1 
C306: x8+x50-y8_50 <=1 
C307: x8+x54 <=1 
C308: x8+x57 <=1 
C309: x8+x59-y8_59 <=1 
C310: x8+x60 <=1 
C311: x8+x62-y8_62 <=1 
C312: x9+x12-y9_12 <=1 
C313: x9+x14 <=1 
C314: x9+x15-y9_15 <=1 
C315: x9+x17 <=1 
C316: x9+x19-y9_19 <=1 
C317: x9+x21 <=1 
C318: x9+x22 <=1 
C319: x9+x23-y9_23 <=1 
C320: x9+x24 <=1 
C321: x9+x25 <=1 
C322: x9+x26 <=1 
C323: x9+x27 <=1 
C324: x9+x30-y9_30 <=1 
C325: x9+x31-y9_31 <=1 
C326: x9+x32-y9_32 <=1 
C327: x9+x33 <=1 
C328: x9+x34-y9_34 <=1 
C329: x9+x36 <=1 
C330: x9+x37-y9_37 <=1 
C331: x9+x40 <=1 
C332: x9+x41 <=1 
C333: x9+x42-y9_42 <=1 
C334: x9+x43 <=1 
C335: x9+x44-y9_44 <=1 
C336: x9+x45-y9_45 <=1 
C337: x9+x48-y9_48 <=1 
C338: x9+x49-y9_49 <=1 
C339: x9+x50 <=1 
C340: x9+x51 <=1 
C341: x9+x52-y9_52 <=1 
C342: x9+x55-y9_55 <=1 
C343: x9+x56 <=1 
C344: x9+x61 <=1 
C345: x10+x11-y10_11 <=1 
C346: x10+x12 <=1 
C347: x10+x13-y10_13 <=1 
C348: x10+x14 <=1 
C349: x10+x15 <=1 
C350: x10+x18 <=1 
C351: x10+x20 <=1 
C352: x10+x22-y10_22 <=1 
C353: x10+x24-y10_24 <=1 
C354: x10+x25-y10_25 <=1 
C355: x10+x27 <=1 
C356: x10+x28-y10_28 <=1 
C357: x10+x29-y10_29 <=1 
C358: x10+x30-y10_30 <=1 
C359: x10+x31 <=1 
C360: x10+x35 <=1 
C361: x10+x38-y10_38 <=1 
C362: x10+x41-y10_41 <=1 
C363: x10+x42 <=1 
C364: x10+x43-y10_43 <=1 
C365: x10+x44-y10_44 <=1 
C366: x10+x45 <=1 
C367: x10+x47-y10_47 <=1 
C368: x10+x51-y10_51 <=1 
C369: x10+x52-y10_52 <=1 
C370: x10+x53-y10_53 <=1 
C371: x10+x54-y10_54 <=1 
C372: x10+x56 <=1 
C373: x10+x59-y10_59 <=1 
C374: x10+x60-y10_60 <=1 
C375: x10+x61 <=1 
C376: x10+x62-y10_62 <=1 
C377: x11+x12-y11_12 <=1 
C378: x11+x13 <=1 
C379: x11+x16 <=1 
C380: x11+x18-y11_18 <=1 
C381: x11+x20-y11_20 <=1 
C382: x11+x23-y11_23 <=1 
C383: x11+x24-y11_24 <=1 
C384: x11+x26 <=1 
C385: x11+x30 <=1 
C386: x11+x31-y11_31 <=1 
C387: x11+x32-y11_32 <=1 
C388: x11+x34-y11_34 <=1 
C389: x11+x37-y11_37 <=1 
C390: x11+x38-y11_38 <=1 
C391: x11+x39 <=1 
C392: x11+x40-y11_40 <=1 
C393: x11+x41-y11_41 <=1 
C394: x11+x42-y11_42 <=1 
C395: x11+x43 <=1 
C396: x11+x44-y11_44 <=1 
C397: x11+x45-y11_45 <=1 
C398: x11+x46 <=1 
C399: x11+x51 <=1 
C400: x11+x52-y11_52 <=1 
C401: x11+x53 <=1 
C402: x11+x54-y11_54 <=1 
C403: x11+x55 <=1 
C404: x11+x57-y11_57 <=1 
C405: x11+x58-y11_58 <=1 
C406: x11+x59-y11_59 <=1 
C407: x11+x61 <=1 
C408: x12+x13 <=1 
C409: x12+x14 <=1 
C410: x12+x15-y12_15 <=1 
C411: x12+x19 <=1 
C412: x12+x20-y12_20 <=1 
C413: x12+x21 <=1 
C414: x12+x22-y12_22 <=1 
C415: x12+x23 <=1 
C416: x12+x26 <=1 
C417: x12+x27 <=1 
C418: x12+x28 <=1 
C419: x12+x30-y12_30 <=1 
C420: x12+x33 <=1 
C421: x12+x34-y12_34 <=1 
C422: x12+x35 <=1 
C423: x12+x36-y12_36 <=1 
C424: x12+x37-y12_37 <=1 
C425: x12+x39-y12_39 <=1 
C426: x12+x40 <=1 
C427: x12+x42-y12_42 <=1 
C428: x12+x44 <=1 
C429: x12+x49 <=1 
C430: x12+x50-y12_50 <=1 
C431: x12+x51 <=1 
C432: x12+x52-y12_52 <=1 
C433: x12+x55 <=1 
C434: x12+x58 <=1 
C435: x12+x62 <=1 
C436: x13+x15 <=1 
C437: x13+x16 <=1 
C438: x13+x18 <=1 
C439: x13+x19-y13_19 <=1 
C440: x13+x20 <=1 
C441: x13+x21-y13_21 <=1 
C442: x13+x25-y13_25 <=1 
C443: x13+x27-y13_27 <=1 
C444: x13+x28 <=1 
C445: x13+x29-y13_29 <=1 
C446: x13+x30 <=1 
C447: x13+x33-y13_33 <=1 
C448: x13+x34-y13_34 <=1 
C449: x13+x35 <=1 
C450: x13+x38-y13_38 <=1 
C451: x13+x40-y13_40 <=1 
C452: x13+x43-y13_43 <=1 
C453: x13+x44 <=1 
C454: x13+x45-y13_45 <=1 
C455: x13+x46 <=1 
C456: x13+x47 <=1 
C457: x13+x48 <=1 
C458: x13+x49 <=1 
C459: x13+x50 <=1 
C460: x13+x51 <=1 
C461: x13+x53-y13_53 <=1 
C462: x13+x54 <=1 
C463: x13+x56 <=1 
C464: x13+x59 <=1 
C465: x13+x60 <=1 
C466: x13+x61 <=1 
C467: x13+x62 <=1 
C468: x14+x15-y14_15 <=1 
C469: x14+x19 <=1 
C470: x14+x20 <=1 
C471: x14+x21-y14_21 <=1 
C472: x14+x23 <=1 
C473: x14+x25 <=1 
C474: x14+x26-y14_26 <=1 
C475: x14+x28 <=1 
C476: x14+x30 <=1 
C477: x14+x31 <=1 
C478: x14+x32-y14_32 <=1 
C479: x14+x33-y14_33 <=1 
C480: x14+x35-y14_35 <=1 
C481: x14+x38 <=1 
C482: x14+x39-y14_39 <=1 
C483: x14+x41-y14_41 <=1 
C484: x14+x42-y14_42 <=1 
C485: x14+x44-y14_44 <=1 
C486: x14+x46 <=1 
C487: x14+x47 <=1 
C488: x14+x49 <=1 
C489: x14+x50 <=1 
C490: x14+x55 <=1 
C491: x14+x56-y14_56 <=1 
C492: x14+x57-y14_57 <=1 
C493: x14+x58-y14_58 <=1 
C494: x14+x59 <=1 
C495: x14+x60-y14_60 <=1 
C496: x14+x61-y14_61 <=1 
C497: x15+x16 <=1 
C498: x15+x22-y15_22 <=1 
C499: x15+x25-y15_25 <=1 
C500: x15+x29-y15_29 <=1 
C501: x15+x30 <=1 
C502: x15+x31 <=1 
C503: x15+x32 <=1 
C504: x15+x34-y15_34 <=1 
C505: x15+x38 <=1 
C506: x15+x42-y15_42 <=1 
C507: x15+x46 <=1 
C508: x15+x49 <=1 
C509: x15+x50-y15_50 <=1 
C510: x15+x51 <=1 
C511: x15+x53 <=1 
C512: x15+x54 <=1 
C513: x15+x55-y15_55 <=1 
C514: x15+x58 <=1 
C515: x15+x61 <=1 
C516: x16+x18-y16_18 <=1 
C517: x16+x19 <=1 
C518: x16+x20-y16_20 <=1 
C519: x16+x21-y16_21 <=1 
C520: x16+x22 <=1 
C521: x16+x24-y16_24 <=1 
C522: x16+x26 <=1 
C523: x16+x29 <=1 
C524: x16+x32-y16_32 <=1 
C525: x16+x33 <=1 
C526: x16+x34-y16_34 <=1 
C527: x16+x35-y16_35 <=1 
C528: x16+x36 <=1 
C529: x16+x37 <=1 
C530: x16+x39 <=1 
C531: x16+x40-y16_40 <=1 
C532: x16+x41 <=1 
C533: x16+x42 <=1 
C534: x16+x43 <=1 
C535: x16+x44 <=1 
C536: x16+x45 <=1 
C537: x16+x48-y16_48 <=1 
C538: x16+x51-y16_51 <=1 
C539: x16+x52-y16_52 <=1 
C540: x16+x54 <=1 
C541: x16+x55 <=1 
C542: x16+x56 <=1 
C543: x16+x59 <=1 
C544: x16+x61-y16_61 <=1 
C545: x17+x19-y17_19 <=1 
C546: x17+x20-y17_20 <=1 
C547: x17+x21 <=1 
C548: x17+x23-y17_23 <=1 
C549: x17+x24-y17_24 <=1 
C550: x17+x25 <=1 
C551: x17+x27 <=1 
C552: x17+x29-y17_29 <=1 
C553: x17+x31-y17_31 <=1 
C554: x17+x32-y17_32 <=1 
C555: x17+x33 <=1 
C556: x17+x34-y17_34 <=1 
C557: x17+x35-y17_35 <=1 
C558: x17+x37 <=1 
C559: x17+x39 <=1 
C560: x17+x42-y17_42 <=1 
C561: x17+x45-y17_45 <=1 
C562: x17+x46-y17_46 <=1 
C563: x17+x48-y17_48 <=1 
C564: x17+x49-y17_49 <=1 
C565: x17+x51 <=1 
C566: x17+x54 <=1 
C567: x17+x55-y17_55 <=1 
C568: x17+x56-y17_56 <=1 
C569: x17+x59 <=1 
C570: x17+x61 <=1 
C571: x18+x19 <=1 
C572: x18+x22 <=1 
C573: x18+x23-y18_23 <=1 
C574: x18+x24 <=1 
C575: x18+x25-y18_25 <=1 
C576: x18+x27-y18_27 <=1 
C577: x18+x28 <=1 
C578: x18+x29-y18_29 <=1 
C579: x18+x31-y18_31 <=1 
C580: x18+x32 <=1 
C581: x18+x33 <=1 
C582: x18+x38-y18_38 <=1 
C583: x18+x39 <=1 
C584: x18+x42 <=1 
C585: x18+x44 <=1 
C586: x18+x46-y18_46 <=1 
C587: x18+x49 <=1 
C588: x18+x50-y18_50 <=1 
C589: x18+x51-y18_51 <=1 
C590: x18+x52 <=1 
C591: x18+x53-y18_53 <=1 
C592: x18+x54-y18_54 <=1 
C593: x18+x55 <=1 
C594: x18+x56-y18_56 <=1 
C595: x18+x57 <=1 
C596: x18+x62 <=1 
C597: x19+x20 <=1 
C598: x19+x21 <=1 
C599: x19+x23-y19_23 <=1 
C600: x19+x24 <=1 
C601: x19+x25 <=1 
C602: x19+x26-y19_26 <=1 
C603: x19+x27 <=1 
C604: x19+x28 <=1 
C605: x19+x29-y19_29 <=1 
C606: x19+x32-y19_32 <=1 
C607: x19+x35-y19_35 <=1 
C608: x19+x38-y19_38 <=1 
C609: x19+x40-y19_40 <=1 
C610: x19+x41 <=1 
C611: x19+x42-y19_42 <=1 
C612: x19+x43 <=1 
C613: x19+x45 <=1 
C614: x19+x46 <=1 
C615: x19+x47-y19_47 <=1 
C616: x19+x48-y19_48 <=1 
C617: x19+x49 <=1 
C618: x19+x50-y19_50 <=1 
C619: x19+x52 <=1 
C620: x19+x54-y19_54 <=1 
C621: x19+x55 <=1 
C622: x19+x56 <=1 
C623: x19+x57-y19_57 <=1 
C624: x19+x58-y19_58 <=1 
C625: x19+x59 <=1 
C626: x19+x60-y19_60 <=1 
C627: x20+x22-y20_22 <=1 
C628: x20+x26-y20_26 <=1 
C629: x20+x29 <=1 
C630: x20+x32 <=1 
C631: x20+x33-y20_33 <=1 
C632: x20+x34 <=1 
C633: x20+x37-y20_37 <=1 
C634: x20+x38 <=1 
C635: x20+x39-y20_39 <=1 
C636: x20+x41 <=1 
C637: x20+x42 <=1 
C638: x20+x45 <=1 
C639: x20+x46-y20_46 <=1 
C640: x20+x47 <=1 
C641: x20+x48-y20_48 <=1 
C642: x20+x49 <=1 
C643: x20+x50 <=1 
C644: x20+x51 <=1 
C645: x20+x52-y20_52 <=1 
C646: x20+x53-y20_53 <=1 
C647: x20+x54-y20_54 <=1 
C648: x20+x55 <=1 
C649: x20+x56-y20_56 <=1 
C650: x20+x57 <=1 
C651: x20+x58 <=1 
C652: x20+x59-y20_59 <=1 
C653: x20+x60-y20_60 <=1 
C654: x20+x62-y20_62 <=1 
C655: x21+x23 <=1 
C656: x21+x24-y21_24 <=1 
C657: x21+x25-y21_25 <=1 
C658: x21+x26-y21_26 <=1 
C659: x21+x27-y21_27 <=1 
C660: x21+x28 <=1 
C661: x21+x29-y21_29 <=1 
C662: x21+x32 <=1 
C663: x21+x33 <=1 
C664: x21+x34 <=1 
C665: x21+x35 <=1 
C666: x21+x38-y21_38 <=1 
C667: x21+x42-y21_42 <=1 
C668: x21+x43-y21_43 <=1 
C669: x21+x44-y21_44 <=1 
C670: x21+x45-y21_45 <=1 
C671: x21+x46 <=1 
C672: x21+x47-y21_47 <=1 
C673: x21+x48-y21_48 <=1 
C674: x21+x49-y21_49 <=1 
C675: x21+x51 <=1 
C676: x21+x52-y21_52 <=1 
C677: x21+x56 <=1 
C678: x21+x58-y21_58 <=1 
C679: x21+x61-y21_61 <=1 
C680: x22+x23-y22_23 <=1 
C681: x22+x24 <=1 
C682: x22+x26 <=1 
C683: x22+x27 <=1 
C684: x22+x32-y22_32 <=1 
C685: x22+x33-y22_33 <=1 
C686: x22+x34 <=1 
C687: x22+x35-y22_35 <=1 
C688: x22+x38-y22_38 <=1 
C689: x22+x39 <=1 
C690: x22+x41 <=1 
C691: x22+x43-y22_43 <=1 
C692: x22+x44 <=1 
C693: x22+x45-y22_45 <=1 
C694: x22+x47 <=1 
C695: x22+x48-y22_48 <=1 
C696: x22+x49 <=1 
C697: x22+x54 <=1 
C698: x22+x55-y22_55 <=1 
C699: x22+x56-y22_56 <=1 
C700: x22+x57 <=1 
C701: x22+x60-y22_60 <=1 
C702: x22+x61-y22_61 <=1 
C703: x23+x24 <=1 
C704: x23+x25-y23_25 <=1 
C705: x23+x26-y23_26 <=1 
C706: x23+x27 <=1 
C707: x23+x28-y23_28 <=1 
C708: x23+x30 <=1 
C709: x23+x32-y23_32 <=1 
C710: x23+x34 <=1 
C711: x23+x36 <=1 
C712: x23+x37 <=1 
C713: x23+x38 <=1 
C714: x23+x39-y23_39 <=1 
C715: x23+x40-y23_40 <=1 
C716: x23+x42 <=1 
C717: x23+x43 <=1 
C718: x23+x45 <=1 
C719: x23+x48 <=1 
C720: x23+x49-y23_49 <=1 
C721: x23+x50 <=1 
C722: x23+x52 <=1 
C723: x23+x53 <=1 
C724: x23+x55 <=1 
C725: x23+x56 <=1 
C726: x23+x57 <=1 
C727: x23+x58 <=1 
C728: x23+x60 <=1 
C729: x23+x62-y23_62 <=1 
C730: x24+x26-y24_26 <=1 
C731: x24+x27 <=1 
C732: x24+x28-y24_28 <=1 
C733: x24+x29-y24_29 <=1 
C734: x24+x30-y24_30 <=1 
C735: x24+x31-y24_31 <=1 
C736: x24+x32 <=1 
C737: x24+x33 <=1 
C738: x24+x34 <=1 
C739: x24+x35-y24_35 <=1 
C740: x24+x36 <=1 
C741: x24+x37-y24_37 <=1 
C742: x24+x39-y24_39 <=1 
C743: x24+x40-y24_40 <=1 
C744: x24+x41 <=1 
C745: x24+x42 <=1 
C746: x24+x45 <=1 
C747: x24+x46 <=1 
C748: x24+x49-y24_49 <=1 
C749: x24+x51-y24_51 <=1 
C750: x24+x52 <=1 
C751: x24+x54 <=1 
C752: x24+x55-y24_55 <=1 
C753: x24+x57 <=1 
C754: x24+x58-y24_58 <=1 
C755: x24+x59 <=1 
C756: x25+x29 <=1 
C757: x25+x30-y25_30 <=1 
C758: x25+x31-y25_31 <=1 
C759: x25+x32-y25_32 <=1 
C760: x25+x33-y25_33 <=1 
C761: x25+x37-y25_37 <=1 
C762: x25+x38-y25_38 <=1 
C763: x25+x42-y25_42 <=1 
C764: x25+x43 <=1 
C765: x25+x44-y25_44 <=1 
C766: x25+x46 <=1 
C767: x25+x48-y25_48 <=1 
C768: x25+x52-y25_52 <=1 
C769: x25+x53 <=1 
C770: x25+x55-y25_55 <=1 
C771: x25+x56 <=1 
C772: x25+x57 <=1 
C773: x25+x58-y25_58 <=1 
C774: x25+x61-y25_61 <=1 
C775: x25+x62 <=1 
C776: x26+x28-y26_28 <=1 
C777: x26+x30-y26_30 <=1 
C778: x26+x31 <=1 
C779: x26+x35 <=1 
C780: x26+x36 <=1 
C781: x26+x37-y26_37 <=1 
C782: x26+x40-y26_40 <=1 
C783: x26+x42-y26_42 <=1 
C784: x26+x44 <=1 
C785: x26+x47-y26_47 <=1 
C786: x26+x48 <=1 
C787: x26+x49-y26_49 <=1 
C788: x26+x50 <=1 
C789: x26+x52 <=1 
C790: x26+x55 <=1 
C791: x26+x57 <=1 
C792: x26+x59-y26_59 <=1 
C793: x26+x62-y26_62 <=1 
C794: x27+x28-y27_28 <=1 
C795: x27+x31-y27_31 <=1 
C796: x27+x32 <=1 
C797: x27+x35-y27_35 <=1 
C798: x27+x36 <=1 
C799: x27+x37 <=1 
C800: x27+x41-y27_41 <=1 
C801: x27+x42-y27_42 <=1 
C802: x27+x43 <=1 
C803: x27+x44-y27_44 <=1 
C804: x27+x45 <=1 
C805: x27+x46 <=1 
C806: x27+x47-y27_47 <=1 
C807: x27+x50 <=1 
C808: x27+x52-y27_52 <=1 
C809: x27+x53 <=1 
C810: x27+x55 <=1 
C811: x27+x57-y27_57 <=1 
C812: x27+x58 <=1 
C813: x27+x59 <=1 
C814: x27+x60 <=1 
C815: x28+x32 <=1 
C816: x28+x34 <=1 
C817: x28+x36-y28_36 <=1 
C818: x28+x38-y28_38 <=1 
C819: x28+x39-y28_39 <=1 
C820: x28+x43 <=1 
C821: x28+x44 <=1 
C822: x28+x45-y28_45 <=1 
C823: x28+x47-y28_47 <=1 
C824: x28+x49 <=1 
C825: x28+x50 <=1 
C826: x28+x51 <=1 
C827: x28+x52 <=1 
C828: x28+x53 <=1 
C829: x28+x54 <=1 
C830: x28+x56 <=1 
C831: x28+x57-y28_57 <=1 
C832: x28+x58 <=1 
C833: x28+x62 <=1 
C834: x29+x30-y29_30 <=1 
C835: x29+x31 <=1 
C836: x29+x32 <=1 
C837: x29+x33 <=1 
C838: x29+x34-y29_34 <=1 
C839: x29+x35-y29_35 <=1 
C840: x29+x36-y29_36 <=1 
C841: x29+x38-y29_38 <=1 
C842: x29+x39 <=1 
C843: x29+x41-y29_41 <=1 
C844: x29+x45 <=1 
C845: x29+x46 <=1 
C846: x29+x48 <=1 
C847: x29+x49-y29_49 <=1 
C848: x29+x50 <=1 
C849: x29+x51 <=1 
C850: x29+x52 <=1 
C851: x29+x54-y29_54 <=1 
C852: x29+x58 <=1 
C853: x29+x60 <=1 
C854: x29+x61 <=1 
C855: x30+x34-y30_34 <=1 
C856: x30+x38 <=1 
C857: x30+x39 <=1 
C858: x30+x40 <=1 
C859: x30+x41-y30_41 <=1 
C860: x30+x43-y30_43 <=1 
C861: x30+x45 <=1 
C862: x30+x46-y30_46 <=1 
C863: x30+x47 <=1 
C864: x30+x48-y30_48 <=1 
C865: x30+x49 <=1 
C866: x30+x50 <=1 
C867: x30+x51-y30_51 <=1 
C868: x30+x52 <=1 
C869: x30+x53 <=1 
C870: x30+x54-y30_54 <=1 
C871: x30+x55 <=1 
C872: x30+x57 <=1 
C873: x30+x58-y30_58 <=1 
C874: x30+x59 <=1 
C875: x30+x61 <=1 
C876: x30+x62-y30_62 <=1 
C877: x31+x33-y31_33 <=1 
C878: x31+x35 <=1 
C879: x31+x36 <=1 
C880: x31+x37 <=1 
C881: x31+x38-y31_38 <=1 
C882: x31+x41 <=1 
C883: x31+x45 <=1 
C884: x31+x46-y31_46 <=1 
C885: x31+x48 <=1 
C886: x31+x49 <=1 
C887: x31+x51 <=1 
C888: x31+x52-y31_52 <=1 
C889: x31+x53-y31_53 <=1 
C890: x31+x54-y31_54 <=1 
C891: x31+x55-y31_55 <=1 
C892: x31+x56-y31_56 <=1 
C893: x31+x58 <=1 
C894: x31+x60-y31_60 <=1 
C895: x32+x35 <=1 
C896: x32+x36-y32_36 <=1 
C897: x32+x37-y32_37 <=1 
C898: x32+x38-y32_38 <=1 
C899: x32+x39-y32_39 <=1 
C900: x32+x42-y32_42 <=1 
C901: x32+x43 <=1 
C902: x32+x44 <=1 
C903: x32+x45 <=1 
C904: x32+x46 <=1 
C905: x32+x48 <=1 
C906: x32+x50-y32_50 <=1 
C907: x32+x51-y32_51 <=1 
C908: x32+x52 <=1 
C909: x32+x53 <=1 
C910: x32+x54-y32_54 <=1 
C911: x32+x55-y32_55 <=1 
C912: x32+x56 <=1 
C913: x32+x57 <=1 
C914: x32+x58 <=1 
C915: x32+x59 <=1 
C916: x32+x61-y32_61 <=1 
C917: x33+x34 <=1 
C918: x33+x39 <=1 
C919: x33+x41-y33_41 <=1 
C920: x33+x43-y33_43 <=1 
C921: x33+x44-y33_44 <=1 
C922: x33+x45 <=1 
C923: x33+x46-y33_46 <=1 
C924: x33+x47-y33_47 <=1 
C925: x33+x48-y33_48 <=1 
C926: x33+x49 <=1 
C927: x33+x52-y33_52 <=1 
C928: x33+x53 <=1 
C929: x33+x54-y33_54 <=1 
C930: x33+x55 <=1 
C931: x33+x57-y33_57 <=1 
C932: x33+x58-y33_58 <=1 
C933: x33+x59-y33_59 <=1 
C934: x33+x61-y33_61 <=1 
C935: x34+x35-y34_35 <=1 
C936: x34+x38 <=1 
C937: x34+x39-y34_39 <=1 
C938: x34+x42 <=1 
C939: x34+x43-y34_43 <=1 
C940: x34+x44 <=1 
C941: x34+x45 <=1 
C942: x34+x46-y34_46 <=1 
C943: x34+x51 <=1 
C944: x34+x53 <=1 
C945: x34+x54-y34_54 <=1 
C946: x34+x56-y34_56 <=1 
C947: x34+x57 <=1 
C948: x34+x58-y34_58 <=1 
C949: x34+x59 <=1 
C950: x34+x60 <=1 
C951: x34+x61-y34_61 <=1 
C952: x34+x62 <=1 
C953: x35+x37 <=1 
C954: x35+x40-y35_40 <=1 
C955: x35+x42-y35_42 <=1 
C956: x35+x43-y35_43 <=1 
C957: x35+x45 <=1 
C958: x35+x47 <=1 
C959: x35+x49-y35_49 <=1 
C960: x35+x51 <=1 
C961: x35+x53-y35_53 <=1 
C962: x35+x54 <=1 
C963: x35+x55-y35_55 <=1 
C964: x35+x56 <=1 
C965: x35+x57 <=1 
C966: x36+x37-y36_37 <=1 
C967: x36+x38-y36_38 <=1 
C968: x36+x39-y36_39 <=1 
C969: x36+x40-y36_40 <=1 
C970: x36+x41 <=1 
C971: x36+x42-y36_42 <=1 
C972: x36+x45-y36_45 <=1 
C973: x36+x47-y36_47 <=1 
C974: x36+x48 <=1 
C975: x36+x51-y36_51 <=1 
C976: x36+x54 <=1 
C977: x36+x55-y36_55 <=1 
C978: x36+x56 <=1 
C979: x36+x57 <=1 
C980: x36+x60 <=1 
C981: x36+x61 <=1 
C982: x37+x39-y37_39 <=1 
C983: x37+x40 <=1 
C984: x37+x41 <=1 
C985: x37+x43 <=1 
C986: x37+x45-y37_45 <=1 
C987: x37+x50 <=1 
C988: x37+x52-y37_52 <=1 
C989: x37+x54 <=1 
C990: x37+x55-y37_55 <=1 
C991: x37+x56 <=1 
C992: x37+x58 <=1 
C993: x37+x61-y37_61 <=1 
C994: x38+x39-y38_39 <=1 
C995: x38+x41-y38_41 <=1 
C996: x38+x43 <=1 
C997: x38+x46-y38_46 <=1 
C998: x38+x47 <=1 
C999: x38+x48-y38_48 <=1 
C1000: x38+x50-y38_50 <=1 
C1001: x38+x52-y38_52 <=1 
C1002: x38+x53 <=1 
C1003: x38+x54 <=1 
C1004: x38+x56 <=1 
C1005: x38+x62 <=1 
C1006: x39+x40-y39_40 <=1 
C1007: x39+x42-y39_42 <=1 
C1008: x39+x43-y39_43 <=1 
C1009: x39+x46 <=1 
C1010: x39+x47 <=1 
C1011: x39+x48-y39_48 <=1 
C1012: x39+x50-y39_50 <=1 
C1013: x39+x51-y39_51 <=1 
C1014: x39+x53 <=1 
C1015: x39+x54 <=1 
C1016: x39+x56 <=1 
C1017: x39+x57 <=1 
C1018: x39+x58 <=1 
C1019: x39+x60-y39_60 <=1 
C1020: x39+x61 <=1 
C1021: x40+x44 <=1 
C1022: x40+x46-y40_46 <=1 
C1023: x40+x49 <=1 
C1024: x40+x51 <=1 
C1025: x40+x52-y40_52 <=1 
C1026: x40+x53 <=1 
C1027: x40+x56 <=1 
C1028: x40+x57-y40_57 <=1 
C1029: x40+x58-y40_58 <=1 
C1030: x40+x59-y40_59 <=1 
C1031: x40+x60 <=1 
C1032: x41+x43-y41_43 <=1 
C1033: x41+x44-y41_44 <=1 
C1034: x41+x46-y41_46 <=1 
C1035: x41+x48-y41_48 <=1 
C1036: x41+x49-y41_49 <=1 
C1037: x41+x50-y41_50 <=1 
C1038: x41+x51 <=1 
C1039: x41+x52-y41_52 <=1 
C1040: x41+x55 <=1 
C1041: x41+x56-y41_56 <=1 
C1042: x41+x57-y41_57 <=1 
C1043: x41+x58-y41_58 <=1 
C1044: x41+x59-y41_59 <=1 
C1045: x41+x60-y41_60 <=1 
C1046: x41+x61-y41_61 <=1 
C1047: x42+x43-y42_43 <=1 
C1048: x42+x45 <=1 
C1049: x42+x46 <=1 
C1050: x42+x47 <=1 
C1051: x42+x49 <=1 
C1052: x42+x52 <=1 
C1053: x42+x53 <=1 
C1054: x42+x54 <=1 
C1055: x42+x56-y42_56 <=1 
C1056: x42+x57 <=1 
C1057: x42+x58 <=1 
C1058: x42+x60 <=1 
C1059: x42+x61 <=1 
C1060: x42+x62 <=1 
C1061: x43+x44-y43_44 <=1 
C1062: x43+x45-y43_45 <=1 
C1063: x43+x46-y43_46 <=1 
C1064: x43+x47 <=1 
C1065: x43+x48 <=1 
C1066: x43+x49-y43_49 <=1 
C1067: x43+x50-y43_50 <=1 
C1068: x43+x51 <=1 
C1069: x43+x53 <=1 
C1070: x43+x54-y43_54 <=1 
C1071: x43+x55-y43_55 <=1 
C1072: x43+x56 <=1 
C1073: x43+x58 <=1 
C1074: x43+x61-y43_61 <=1 
C1075: x44+x45 <=1 
C1076: x44+x46-y44_46 <=1 
C1077: x44+x47-y44_47 <=1 
C1078: x44+x49-y44_49 <=1 
C1079: x44+x50-y44_50 <=1 
C1080: x44+x52-y44_52 <=1 
C1081: x44+x53 <=1 
C1082: x44+x54-y44_54 <=1 
C1083: x44+x56-y44_56 <=1 
C1084: x44+x57-y44_57 <=1 
C1085: x44+x58 <=1 
C1086: x44+x59-y44_59 <=1 
C1087: x44+x61-y44_61 <=1 
C1088: x44+x62 <=1 
C1089: x45+x46-y45_46 <=1 
C1090: x45+x47 <=1 
C1091: x45+x48-y45_48 <=1 
C1092: x45+x49 <=1 
C1093: x45+x50 <=1 
C1094: x45+x51 <=1 
C1095: x45+x52-y45_52 <=1 
C1096: x45+x53-y45_53 <=1 
C1097: x45+x57 <=1 
C1098: x45+x59 <=1 
C1099: x45+x60-y45_60 <=1 
C1100: x45+x61 <=1 
C1101: x45+x62 <=1 
C1102: x46+x49-y46_49 <=1 
C1103: x46+x50-y46_50 <=1 
C1104: x46+x51-y46_51 <=1 
C1105: x46+x53-y46_53 <=1 
C1106: x46+x55 <=1 
C1107: x46+x56 <=1 
C1108: x46+x57-y46_57 <=1 
C1109: x46+x58 <=1 
C1110: x46+x62 <=1 
C1111: x47+x49 <=1 
C1112: x47+x50-y47_50 <=1 
C1113: x47+x51-y47_51 <=1 
C1114: x47+x52-y47_52 <=1 
C1115: x47+x53-y47_53 <=1 
C1116: x47+x55-y47_55 <=1 
C1117: x47+x56-y47_56 <=1 
C1118: x47+x59 <=1 
C1119: x47+x60-y47_60 <=1 
C1120: x47+x61 <=1 
C1121: x48+x50-y48_50 <=1 
C1122: x48+x52-y48_52 <=1 
C1123: x48+x53 <=1 
C1124: x48+x54 <=1 
C1125: x48+x55 <=1 
C1126: x48+x56-y48_56 <=1 
C1127: x48+x58 <=1 
C1128: x49+x50 <=1 
C1129: x49+x53 <=1 
C1130: x49+x58 <=1 
C1131: x49+x59-y49_59 <=1 
C1132: x49+x60 <=1 
C1133: x49+x61-y49_61 <=1 
C1134: x49+x62-y49_62 <=1 
C1135: x50+x51 <=1 
C1136: x50+x52 <=1 
C1137: x50+x55 <=1 
C1138: x50+x56 <=1 
C1139: x50+x59 <=1 
C1140: x50+x60 <=1 
C1141: x50+x62 <=1 
C1142: x51+x53-y51_53 <=1 
C1143: x51+x56-y51_56 <=1 
C1144: x51+x57 <=1 
C1145: x51+x58-y51_58 <=1 
C1146: x51+x59 <=1 
C1147: x51+x61 <=1 
C1148: x52+x55-y52_55 <=1 
C1149: x52+x57 <=1 
C1150: x52+x58 <=1 
C1151: x52+x59-y52_59 <=1 
C1152: x53+x55 <=1 
C1153: x53+x56-y53_56 <=1 
C1154: x53+x58-y53_58 <=1 
C1155: x53+x59-y53_59 <=1 
C1156: x53+x60 <=1 
C1157: x53+x61-y53_61 <=1 
C1158: x53+x62-y53_62 <=1 
C1159: x54+x55-y54_55 <=1 
C1160: x54+x57 <=1 
C1161: x54+x58 <=1 
C1162: x54+x59 <=1 
C1163: x54+x60 <=1 
C1164: x54+x61-y54_61 <=1 
C1165: x54+x62-y54_62 <=1 
C1166: x55+x56 <=1 
C1167: x55+x57 <=1 
C1168: x55+x60 <=1 
C1169: x55+x61 <=1 
C1170: x55+x62-y55_62 <=1 
C1171: x56+x57-y56_57 <=1 
C1172: x56+x58 <=1 
C1173: x56+x60-y56_60 <=1 
C1174: x57+x61-y57_61 <=1 
C1175: x57+x62-y57_62 <=1 
C1176: x58+x60-y58_60 <=1 
C1177: x58+x62 <=1 
C1178: x59+x60 <=1 
C1179: x60+x62-y60_62 <=1 
C1180: x61+x62 <=1 

binary
x0
x1
x2
x3
x4
x5
x6
x7
x8
x9
x10
x11
x12
x13
x14
x15
x16
x17
x18
x19
x20
x21
x22
x23
x24
x25
x26
x27
x28
x29
x30
x31
x32
x33
x34
x35
x36
x37
x38
x39
x40
x41
x42
x43
x44
x45
x46
x47
x48
x49
x50
x51
x52
x53
x54
x55
x56
x57
x58
x59
x60
x61
x62
