problem_generation/data/GISP/train/er_n=63_m=1180_p=0.60_SET2_setparam=100.00_alpha=0.50_360.sol
objective value:                                 1172
x4                                                  1 	(obj:100)
x7                                                  1 	(obj:100)
x11                                                 1 	(obj:100)
x12                                                 1 	(obj:100)
x15                                                 1 	(obj:100)
x17                                                 1 	(obj:100)
x22                                                 1 	(obj:100)
x45                                                 1 	(obj:100)
x48                                                 1 	(obj:100)
x52                                                 1 	(obj:100)
x56                                                 1 	(obj:100)
x60                                                 1 	(obj:100)
y17_48                                              1 	(obj:-1)
y17_56                                              1 	(obj:-1)
y12_52                                              1 	(obj:-1)
y22_60                                              1 	(obj:-1)
y12_15                                              1 	(obj:-1)
y45_48                                              1 	(obj:-1)
y11_45                                              1 	(obj:-1)
y4_15                                               1 	(obj:-1)
y45_52                                              1 	(obj:-1)
y22_45                                              1 	(obj:-1)
y7_56                                               1 	(obj:-1)
y48_52                                              1 	(obj:-1)
y11_12                                              1 	(obj:-1)
y48_56                                              1 	(obj:-1)
y17_45                                              1 	(obj:-1)
y4_60                                               1 	(obj:-1)
y45_60                                              1 	(obj:-1)
y56_60                                              1 	(obj:-1)
y12_22                                              1 	(obj:-1)
y4_45                                               1 	(obj:-1)
y11_52                                              1 	(obj:-1)
y22_48                                              1 	(obj:-1)
y4_17                                               1 	(obj:-1)
y15_22                                              1 	(obj:-1)
y7_45                                               1 	(obj:-1)
y22_56                                              1 	(obj:-1)
y7_22                                               1 	(obj:-1)
y4_7                                                1 	(obj:-1)
